46
52
53
58
57
54
51
47
44
104
45
48
50
55
56
59
105
62
63
70
69
74
75
81
80
76
73
72
77
79
86
89
90
99
98
93
102
101
97
96
92
91
85
84
83
82
78
71
68
67
64
49
40
32
31
30
29
22
21
103
20
23
28
33
26
25
18
16
17
9
8
3
1
2
6
7
10
11
15
12
19
24
27
36
37
5
4
13
14
34
35
38
39
60
61
65
87
94
100
95
88
66
42
41
43
46
